HFSDDW
15	9	3
0	88	1	19	2	79
0	99	1	44	2	9
0	23	1	22	2	62
0	77	1	7	2	71
0	99	1	37	2	53
0	41	1	98	2	43
0	9	1	17	2	47
0	74	1	26	2	64
0	75	1	46	2	5
0	40	1	44	2	30
0	35	1	95	2	80
0	33	1	37	2	92
0	9	1	76	2	43
0	56	1	50	2	33
0	39	1	13	2	83
LBCmax: 324
RELDUE
-1	207	1	8
-1	255	8	3
-1	274	4	2
-1	309	9	7
-1	315	1	6
-1	262	3	2
-1	349	9	5
-1	268	7	2
-1	166	4	2
-1	319	8	5
-1	188	9	5
-1	343	6	6
-1	189	8	4
-1	209	4	8
-1	352	5	3
DDW
186	228
230	280
258	290
294	324
296	334
244	280
328	370
265	271
154	178
293	345
180	196
312	374
178	200
205	213
334	370
